(declare-fun temp4429_1 () (_ BitVec 64))
(declare-fun var196834 () (_ BitVec 64))
(declare-fun temp4429_2 () (_ BitVec 64))
(declare-fun temp4429_3 () (_ BitVec 64))
(declare-fun var66276 () (_ BitVec 64))
(declare-fun k!0 () Bool)
(declare-fun ARGNAME_x_NAMEEND_DIM () (_ BitVec 64))
(declare-fun temp4429_4 () (_ BitVec 64))
(declare-fun var65762 () (_ BitVec 64))
(declare-fun temp4429_5 () (_ BitVec 64))
(declare-fun temp4429_6 () (_ BitVec 64))
(declare-fun ARGNAME_x_NAMEEND_DIMSIZE () (Array (_ BitVec 64) (_ BitVec 64)))
(declare-fun temp4429_7 () (_ BitVec 64))
(declare-fun temp4429_8 () (_ BitVec 64))
(declare-fun temp4429_9 () (_ BitVec 64))
(declare-fun temp4429_10 () (_ BitVec 64))
(declare-fun temp4429_11 () (_ BitVec 64))
(declare-fun temp4429_12 () (_ BitVec 64))
(declare-fun temp4429_13 () (_ BitVec 64))
(declare-fun temp4429_14 () (_ BitVec 64))
(declare-fun temp4429_15 () (_ BitVec 64))
(declare-fun temp4429_16 () (_ BitVec 64))
(declare-fun temp4429_17 () (_ BitVec 64))
(declare-fun temp4429_18 () (_ BitVec 64))
(declare-fun temp4429_19 () (_ BitVec 64))
(declare-fun temp4429_20 () (_ BitVec 64))
(declare-fun temp4429_21 () (_ BitVec 64))
(declare-fun temp4429_22 () (_ BitVec 64))
(declare-fun temp4429_23 () (_ BitVec 64))
(declare-fun temp4429_24 () (_ BitVec 64))
(declare-fun temp4429_25 () (_ BitVec 64))
(declare-fun var66279 () (_ BitVec 64))
(declare-fun temp4429_27 () (_ BitVec 64))
(declare-fun temp4429_26 () (_ BitVec 64))
(declare-fun temp4429_28 () (_ BitVec 64))
(declare-fun var526834 () (_ BitVec 64))
(declare-fun var526836 () (_ BitVec 64))
(declare-fun var592572 () (_ BitVec 64))
(declare-fun var658116 () (_ BitVec 64))
(declare-fun temp4429_29 () (_ BitVec 64))
(declare-fun temp4429_30 () (_ BitVec 64))
(declare-fun temp4429_31 () (_ BitVec 64))
(declare-fun temp4429_32 () (_ BitVec 64))
(declare-fun var66309 () (_ BitVec 64))
(declare-fun temp4429_34 () (_ BitVec 64))
(declare-fun temp4429_33 () (_ BitVec 64))
(declare-fun temp4429_36 () (_ BitVec 64))
(declare-fun temp4429_35 () (_ BitVec 64))
(declare-fun temp4429_37 () (_ BitVec 64))
(declare-fun var2360614 () (_ BitVec 64))
(declare-fun temp4429_39 () (_ BitVec 64))
(declare-fun temp4429_38 () (_ BitVec 64))
(declare-fun temp4429_40 () (_ BitVec 64))
(declare-fun var2819366 () (_ BitVec 64))
(declare-fun temp4429_41 () (_ BitVec 64))
(declare-fun var2819414 () (_ BitVec 64))
(declare-fun temp4429_42 () (_ BitVec 64))
(assert (= temp4429_1 #x0000000000000000))
(assert (= var196834 temp4429_1))
(assert (= temp4429_2 #x0000000000000001))
(assert (= var66276
   (ite (= ARGNAME_x_NAMEEND_DIM temp4429_2)
        #x0000000000000001
        #x0000000000000000)))
(assert (= temp4429_3 #x0000000000000001))
(assert (= var66276 temp4429_3))
(assert (= temp4429_4 #x0000000000000000))
(assert (= var65762 temp4429_4))
(assert (= temp4429_5 #x0000000000000000))
(assert (= temp4429_6 temp4429_5))
(assert (= temp4429_7 (select ARGNAME_x_NAMEEND_DIMSIZE temp4429_6)))
(assert (= temp4429_8 #x0000000000000001))
(assert (= temp4429_9 temp4429_8))
(assert (= temp4429_10 (select ARGNAME_x_NAMEEND_DIMSIZE temp4429_9)))
(assert (= temp4429_11 #x0000000000000002))
(assert (= temp4429_12 temp4429_11))
(assert (= temp4429_13 (select ARGNAME_x_NAMEEND_DIMSIZE temp4429_12)))
(assert (= temp4429_14 #x0000000000000003))
(assert (= temp4429_15 temp4429_14))
(assert (= temp4429_16 (select ARGNAME_x_NAMEEND_DIMSIZE temp4429_15)))
(assert (= temp4429_17 #x0000000000000004))
(assert (= temp4429_18 temp4429_17))
(assert (= temp4429_19 (select ARGNAME_x_NAMEEND_DIMSIZE temp4429_18)))
(assert (= temp4429_20 #x0000000000000005))
(assert (= temp4429_21 temp4429_20))
(assert (= temp4429_22 (select ARGNAME_x_NAMEEND_DIMSIZE temp4429_21)))
(assert (= temp4429_23 #x0000000000000000))
(assert (= temp4429_24
   (ite (bvslt var65762 temp4429_23)
        (bvadd ARGNAME_x_NAMEEND_DIM var65762)
        var65762)))
(assert (= temp4429_25 (select ARGNAME_x_NAMEEND_DIMSIZE temp4429_24)))
(assert (= var66279 temp4429_25))
(assert (bvslt (ite (bvslt var65762 temp4429_23)
            (bvadd ARGNAME_x_NAMEEND_DIM var65762)
            var65762)
       ARGNAME_x_NAMEEND_DIM))
(assert (= temp4429_27 #x0000000000000001))
(assert (= temp4429_26 temp4429_27))
(assert (= temp4429_28 #x0000000000000005))
(assert (= var526834 temp4429_28))
(assert (= var526836 var526834))
(assert (= var592572 var526836))
(assert (= var658116 var592572))
(assert (= temp4429_29 #x0000000000000000))
(assert (= var65762 temp4429_29))
(assert (= temp4429_30 #x0000000000000000))
(assert (= temp4429_31
   (ite (bvslt var65762 temp4429_30)
        (bvadd ARGNAME_x_NAMEEND_DIM var65762)
        var65762)))
(assert (= temp4429_32 (select ARGNAME_x_NAMEEND_DIMSIZE temp4429_31)))
(assert (= var66309 temp4429_32))
(assert (bvslt (ite (bvslt var65762 temp4429_30)
            (bvadd ARGNAME_x_NAMEEND_DIM var65762)
            var65762)
       ARGNAME_x_NAMEEND_DIM))
(assert (= temp4429_34 #x0000000000000000))
(assert (= temp4429_33 temp4429_34))
(assert (= temp4429_36 #xffffffffffffffff))
(assert (= temp4429_35 temp4429_36))
(assert (= temp4429_37 #x0000000000000001))
(assert (= var2360614 temp4429_37))
(assert (= temp4429_39 #x0000000000000001))
(assert (= temp4429_38 temp4429_39))
(assert (= temp4429_40 #x0000000000000001))
(assert (= var2819366 temp4429_40))
(assert (= temp4429_41 #x0000000000000000))
(assert (= var2819414 temp4429_41))
(assert (= temp4429_42 #x0000000000000000))
(assert (= var2819414 temp4429_42))
(model-add temp4429_1 () (_ BitVec 64) #x0000000000000000)
(model-add var196834 () (_ BitVec 64) #x0000000000000000)
(model-add temp4429_2 () (_ BitVec 64) #x0000000000000001)
(model-add temp4429_3 () (_ BitVec 64) #x0000000000000001)
(model-add var66276 () (_ BitVec 64) #x0000000000000001)
(model-del k!0)
(model-add ARGNAME_x_NAMEEND_DIM
           ()
           (_ BitVec 64)
           (ite k!0 #x0000000000000001 (bvnot #x0000000000000001)))




